* Source:     Pyomo MPS Writer
* Format:     Free MPS
*
NAME unknown
OBJSENSE
 MIN
ROWS
 N  capex
 E  c_e_flow_conservation(n00)_
 E  c_e_flow_conservation(n01)_
 E  c_e_flow_conservation(n02)_
 E  c_e_flow_conservation(n03)_
 E  c_e_flow_conservation(n04)_
 E  c_e_flow_conservation(n05)_
 E  c_e_flow_conservation(n06)_
 E  c_e_flow_conservation(n07)_
 E  c_e_flow_conservation(n08)_
 E  c_e_flow_conservation(n09)_
 E  c_e_flow_conservation(n10)_
 E  c_e_flow_conservation(n11)_
 L  c_u_disjunctions(1)_
 L  c_u_disjunctions(2)_
 L  c_u_disjunctions(3)_
 L  c_u_disjunctions(4)_
 L  c_u_disjunctions(5)_
 G  c_l_continuous_to_batch(1)_
 G  c_l_continuous_to_batch(2)_
 G  c_l_continuous_to_batch(3)_
 G  c_l_continuous_to_batch(4)_
 G  c_l_continuous_to_batch(5)_
 G  c_l_continuous_to_batch(6)_
 G  c_l_continuous_to_batch(7)_
 G  c_l_continuous_to_batch(8)_
 G  c_l_int_cuts(1)_
 G  c_l_int_cuts(2)_
 G  c_l_int_cuts(3)_
 G  c_l_int_cuts(4)_
 G  c_l_int_cuts(5)_
 G  c_l_int_cuts(6)_
 G  c_l_int_cuts(7)_
 G  c_l_int_cuts(8)_
 G  c_l_int_cuts(9)_
 G  c_l_int_cuts(10)_
 G  c_l_int_cuts(11)_
 G  c_l_int_cuts(12)_
 G  c_l_int_cuts(13)_
 G  c_l_int_cuts(14)_
 G  c_l_int_cuts(15)_
 G  c_l_int_cuts(16)_
 G  c_l_int_cuts(17)_
 G  c_l_int_cuts(18)_
 G  c_l_int_cuts(19)_
 G  c_l_int_cuts(20)_
 G  c_l_int_cuts(21)_
 G  c_l_int_cuts(22)_
 G  c_l_int_cuts(23)_
 G  c_l_int_cuts(24)_
 G  c_l_int_cuts(25)_
 G  c_l_int_cuts(26)_
 G  c_l_int_cuts(27)_
 G  c_l_int_cuts(28)_
 G  c_l_int_cuts(29)_
 G  c_l_int_cuts(30)_
 G  c_l_int_cuts(31)_
 G  c_l_int_cuts(32)_
 G  c_l_int_cuts(33)_
 G  c_l_int_cuts(34)_
 G  c_l_int_cuts(35)_
 G  c_l_int_cuts(36)_
COLUMNS
     f(f00) c_e_flow_conservation(n00)_ 1
     f(f00) c_e_flow_conservation(n01)_ 1
     f(f00) c_l_int_cuts(1)_ -1
     f(f00) c_l_int_cuts(2)_ -1
     f(f00) c_l_int_cuts(3)_ -1
     f(f00) c_l_int_cuts(4)_ -1
     f(f00) c_l_int_cuts(5)_ -1
     f(f00) c_l_int_cuts(6)_ -1
     f(f00) c_l_int_cuts(7)_ -1
     f(f00) c_l_int_cuts(8)_ -1
     f(f00) c_l_int_cuts(9)_ -1
     f(f00) c_l_int_cuts(10)_ -1
     f(f00) c_l_int_cuts(11)_ -1
     f(f00) c_l_int_cuts(12)_ -1
     f(f00) c_l_int_cuts(13)_ -1
     f(f00) c_l_int_cuts(14)_ -1
     f(f00) c_l_int_cuts(15)_ -1
     f(f00) c_l_int_cuts(16)_ -1
     f(f00) c_l_int_cuts(17)_ -1
     f(f00) c_l_int_cuts(18)_ -1
     f(f00) c_l_int_cuts(19)_ -1
     f(f00) c_l_int_cuts(20)_ -1
     f(f00) c_l_int_cuts(21)_ -1
     f(f00) c_l_int_cuts(22)_ -1
     f(f00) c_l_int_cuts(23)_ -1
     f(f00) c_l_int_cuts(24)_ -1
     f(f00) c_l_int_cuts(25)_ -1
     f(f00) c_l_int_cuts(26)_ -1
     f(f00) c_l_int_cuts(27)_ -1
     f(f00) c_l_int_cuts(28)_ -1
     f(f00) c_l_int_cuts(29)_ -1
     f(f00) c_l_int_cuts(30)_ -1
     f(f00) c_l_int_cuts(31)_ -1
     f(f00) c_l_int_cuts(32)_ -1
     f(f00) c_l_int_cuts(33)_ -1
     f(f00) c_l_int_cuts(34)_ -1
     f(f00) c_l_int_cuts(35)_ -1
     f(f00) c_l_int_cuts(36)_ -1
     f(f01) capex 0.028899999999999999
     f(f01) c_e_flow_conservation(n01)_ -1
     f(f01) c_e_flow_conservation(n02)_ 1
     f(f01) c_u_disjunctions(2)_ 1
     f(f01) c_l_continuous_to_batch(1)_ -1
     f(f01) c_l_continuous_to_batch(4)_ 1
     f(f01) c_l_int_cuts(1)_ 2
     f(f01) c_l_int_cuts(2)_ 2
     f(f01) c_l_int_cuts(3)_ 2
     f(f01) c_l_int_cuts(4)_ -2
     f(f01) c_l_int_cuts(5)_ 2
     f(f01) c_l_int_cuts(6)_ 2
     f(f01) c_l_int_cuts(7)_ -2
     f(f01) c_l_int_cuts(8)_ 2
     f(f01) c_l_int_cuts(9)_ 2
     f(f01) c_l_int_cuts(10)_ -2
     f(f01) c_l_int_cuts(11)_ 2
     f(f01) c_l_int_cuts(12)_ 2
     f(f01) c_l_int_cuts(13)_ -2
     f(f01) c_l_int_cuts(14)_ 2
     f(f01) c_l_int_cuts(15)_ 2
     f(f01) c_l_int_cuts(16)_ -2
     f(f01) c_l_int_cuts(17)_ 2
     f(f01) c_l_int_cuts(18)_ -2
     f(f01) c_l_int_cuts(19)_ 2
     f(f01) c_l_int_cuts(20)_ -2
     f(f01) c_l_int_cuts(21)_ 2
     f(f01) c_l_int_cuts(22)_ 2
     f(f01) c_l_int_cuts(23)_ -2
     f(f01) c_l_int_cuts(24)_ 2
     f(f01) c_l_int_cuts(25)_ 2
     f(f01) c_l_int_cuts(26)_ -2
     f(f01) c_l_int_cuts(27)_ 2
     f(f01) c_l_int_cuts(28)_ 2
     f(f01) c_l_int_cuts(29)_ -2
     f(f01) c_l_int_cuts(30)_ 2
     f(f01) c_l_int_cuts(31)_ 2
     f(f01) c_l_int_cuts(32)_ -2
     f(f01) c_l_int_cuts(33)_ 2
     f(f01) c_l_int_cuts(34)_ -2
     f(f01) c_l_int_cuts(35)_ 2
     f(f01) c_l_int_cuts(36)_ 2
     f(f02) capex 0.039899999999999998
     f(f02) c_e_flow_conservation(n01)_ -1
     f(f02) c_e_flow_conservation(n02)_ 1
     f(f02) c_u_disjunctions(2)_ 1
     f(f02) c_l_continuous_to_batch(2)_ -1
     f(f02) c_l_continuous_to_batch(4)_ 1
     f(f02) c_l_int_cuts(1)_ 2
     f(f02) c_l_int_cuts(2)_ 2
     f(f02) c_l_int_cuts(3)_ 2
     f(f02) c_l_int_cuts(4)_ 2
     f(f02) c_l_int_cuts(5)_ -2
     f(f02) c_l_int_cuts(6)_ 2
     f(f02) c_l_int_cuts(7)_ 2
     f(f02) c_l_int_cuts(8)_ -2
     f(f02) c_l_int_cuts(9)_ 2
     f(f02) c_l_int_cuts(10)_ 2
     f(f02) c_l_int_cuts(11)_ -2
     f(f02) c_l_int_cuts(12)_ 2
     f(f02) c_l_int_cuts(13)_ 2
     f(f02) c_l_int_cuts(14)_ -2
     f(f02) c_l_int_cuts(15)_ 2
     f(f02) c_l_int_cuts(16)_ 2
     f(f02) c_l_int_cuts(17)_ -2
     f(f02) c_l_int_cuts(18)_ 2
     f(f02) c_l_int_cuts(19)_ -2
     f(f02) c_l_int_cuts(20)_ 2
     f(f02) c_l_int_cuts(21)_ -2
     f(f02) c_l_int_cuts(22)_ 2
     f(f02) c_l_int_cuts(23)_ 2
     f(f02) c_l_int_cuts(24)_ -2
     f(f02) c_l_int_cuts(25)_ 2
     f(f02) c_l_int_cuts(26)_ 2
     f(f02) c_l_int_cuts(27)_ -2
     f(f02) c_l_int_cuts(28)_ 2
     f(f02) c_l_int_cuts(29)_ 2
     f(f02) c_l_int_cuts(30)_ -2
     f(f02) c_l_int_cuts(31)_ 2
     f(f02) c_l_int_cuts(32)_ 2
     f(f02) c_l_int_cuts(33)_ -2
     f(f02) c_l_int_cuts(34)_ 2
     f(f02) c_l_int_cuts(35)_ -2
     f(f02) c_l_int_cuts(36)_ 2
     f(f03) capex 0.1225
     f(f03) c_e_flow_conservation(n01)_ -1
     f(f03) c_e_flow_conservation(n02)_ 1
     f(f03) c_u_disjunctions(2)_ 1
     f(f03) c_l_continuous_to_batch(3)_ -1
     f(f03) c_l_int_cuts(1)_ -2
     f(f03) c_l_int_cuts(2)_ -2
     f(f03) c_l_int_cuts(3)_ -2
     f(f03) c_l_int_cuts(4)_ 2
     f(f03) c_l_int_cuts(5)_ 2
     f(f03) c_l_int_cuts(6)_ -2
     f(f03) c_l_int_cuts(7)_ 2
     f(f03) c_l_int_cuts(8)_ 2
     f(f03) c_l_int_cuts(9)_ -2
     f(f03) c_l_int_cuts(10)_ 2
     f(f03) c_l_int_cuts(11)_ 2
     f(f03) c_l_int_cuts(12)_ -2
     f(f03) c_l_int_cuts(13)_ 2
     f(f03) c_l_int_cuts(14)_ 2
     f(f03) c_l_int_cuts(15)_ -2
     f(f03) c_l_int_cuts(16)_ 2
     f(f03) c_l_int_cuts(17)_ 2
     f(f03) c_l_int_cuts(18)_ 2
     f(f03) c_l_int_cuts(19)_ 2
     f(f03) c_l_int_cuts(20)_ 2
     f(f03) c_l_int_cuts(21)_ 2
     f(f03) c_l_int_cuts(22)_ -2
     f(f03) c_l_int_cuts(23)_ 2
     f(f03) c_l_int_cuts(24)_ 2
     f(f03) c_l_int_cuts(25)_ -2
     f(f03) c_l_int_cuts(26)_ 2
     f(f03) c_l_int_cuts(27)_ 2
     f(f03) c_l_int_cuts(28)_ -2
     f(f03) c_l_int_cuts(29)_ 2
     f(f03) c_l_int_cuts(30)_ 2
     f(f03) c_l_int_cuts(31)_ -2
     f(f03) c_l_int_cuts(32)_ 2
     f(f03) c_l_int_cuts(33)_ 2
     f(f03) c_l_int_cuts(34)_ 2
     f(f03) c_l_int_cuts(35)_ 2
     f(f03) c_l_int_cuts(36)_ -2
     f(f04) c_e_flow_conservation(n02)_ -1
     f(f04) c_e_flow_conservation(n03)_ 1
     f(f04) c_l_int_cuts(1)_ -1
     f(f04) c_l_int_cuts(2)_ -1
     f(f04) c_l_int_cuts(3)_ -1
     f(f04) c_l_int_cuts(4)_ -1
     f(f04) c_l_int_cuts(5)_ -1
     f(f04) c_l_int_cuts(6)_ -1
     f(f04) c_l_int_cuts(7)_ -1
     f(f04) c_l_int_cuts(8)_ -1
     f(f04) c_l_int_cuts(9)_ -1
     f(f04) c_l_int_cuts(10)_ -1
     f(f04) c_l_int_cuts(11)_ -1
     f(f04) c_l_int_cuts(12)_ -1
     f(f04) c_l_int_cuts(13)_ -1
     f(f04) c_l_int_cuts(14)_ -1
     f(f04) c_l_int_cuts(15)_ -1
     f(f04) c_l_int_cuts(16)_ -1
     f(f04) c_l_int_cuts(17)_ -1
     f(f04) c_l_int_cuts(18)_ -1
     f(f04) c_l_int_cuts(19)_ -1
     f(f04) c_l_int_cuts(20)_ -1
     f(f04) c_l_int_cuts(21)_ -1
     f(f04) c_l_int_cuts(22)_ -1
     f(f04) c_l_int_cuts(23)_ -1
     f(f04) c_l_int_cuts(24)_ -1
     f(f04) c_l_int_cuts(25)_ -1
     f(f04) c_l_int_cuts(26)_ -1
     f(f04) c_l_int_cuts(27)_ -1
     f(f04) c_l_int_cuts(28)_ -1
     f(f04) c_l_int_cuts(29)_ -1
     f(f04) c_l_int_cuts(30)_ -1
     f(f04) c_l_int_cuts(31)_ -1
     f(f04) c_l_int_cuts(32)_ -1
     f(f04) c_l_int_cuts(33)_ -1
     f(f04) c_l_int_cuts(34)_ -1
     f(f04) c_l_int_cuts(35)_ -1
     f(f04) c_l_int_cuts(36)_ -1
     f(f05) c_e_flow_conservation(n03)_ -1
     f(f05) c_e_flow_conservation(n04)_ 1
     f(f05) c_u_disjunctions(3)_ 1
     f(f05) c_l_continuous_to_batch(4)_ 1
     f(f05) c_l_continuous_to_batch(5)_ 1
     f(f05) c_l_int_cuts(1)_ -2
     f(f05) c_l_int_cuts(2)_ -2
     f(f05) c_l_int_cuts(3)_ -2
     f(f05) c_l_int_cuts(4)_ -2
     f(f05) c_l_int_cuts(5)_ -2
     f(f05) c_l_int_cuts(6)_ -2
     f(f05) c_l_int_cuts(7)_ -2
     f(f05) c_l_int_cuts(8)_ -2
     f(f05) c_l_int_cuts(9)_ -2
     f(f05) c_l_int_cuts(10)_ -2
     f(f05) c_l_int_cuts(11)_ -2
     f(f05) c_l_int_cuts(12)_ -2
     f(f05) c_l_int_cuts(13)_ 2
     f(f05) c_l_int_cuts(14)_ 2
     f(f05) c_l_int_cuts(15)_ -2
     f(f05) c_l_int_cuts(16)_ 2
     f(f05) c_l_int_cuts(17)_ 2
     f(f05) c_l_int_cuts(18)_ 2
     f(f05) c_l_int_cuts(19)_ 2
     f(f05) c_l_int_cuts(20)_ -2
     f(f05) c_l_int_cuts(21)_ -2
     f(f05) c_l_int_cuts(22)_ -2
     f(f05) c_l_int_cuts(23)_ -2
     f(f05) c_l_int_cuts(24)_ -2
     f(f05) c_l_int_cuts(25)_ -2
     f(f05) c_l_int_cuts(26)_ -2
     f(f05) c_l_int_cuts(27)_ -2
     f(f05) c_l_int_cuts(28)_ -2
     f(f05) c_l_int_cuts(29)_ -2
     f(f05) c_l_int_cuts(30)_ -2
     f(f05) c_l_int_cuts(31)_ -2
     f(f05) c_l_int_cuts(32)_ 2
     f(f05) c_l_int_cuts(33)_ 2
     f(f05) c_l_int_cuts(34)_ -2
     f(f05) c_l_int_cuts(35)_ -2
     f(f05) c_l_int_cuts(36)_ -2
     f(f06) capex 4.9589999999999996
     f(f06) c_e_flow_conservation(n03)_ -1
     f(f06) c_e_flow_conservation(n04)_ 1
     f(f06) c_u_disjunctions(3)_ 1
     f(f06) c_l_continuous_to_batch(1)_ 1
     f(f06) c_l_continuous_to_batch(2)_ 1
     f(f06) c_l_continuous_to_batch(3)_ -1
     f(f06) c_l_int_cuts(1)_ 2
     f(f06) c_l_int_cuts(2)_ 2
     f(f06) c_l_int_cuts(3)_ 2
     f(f06) c_l_int_cuts(4)_ 2
     f(f06) c_l_int_cuts(5)_ 2
     f(f06) c_l_int_cuts(6)_ 2
     f(f06) c_l_int_cuts(7)_ 2
     f(f06) c_l_int_cuts(8)_ 2
     f(f06) c_l_int_cuts(9)_ 2
     f(f06) c_l_int_cuts(10)_ 2
     f(f06) c_l_int_cuts(11)_ 2
     f(f06) c_l_int_cuts(12)_ 2
     f(f06) c_l_int_cuts(13)_ -2
     f(f06) c_l_int_cuts(14)_ -2
     f(f06) c_l_int_cuts(15)_ 2
     f(f06) c_l_int_cuts(16)_ -2
     f(f06) c_l_int_cuts(17)_ -2
     f(f06) c_l_int_cuts(18)_ -2
     f(f06) c_l_int_cuts(19)_ -2
     f(f06) c_l_int_cuts(20)_ 2
     f(f06) c_l_int_cuts(21)_ 2
     f(f06) c_l_int_cuts(22)_ 2
     f(f06) c_l_int_cuts(23)_ 2
     f(f06) c_l_int_cuts(24)_ 2
     f(f06) c_l_int_cuts(25)_ 2
     f(f06) c_l_int_cuts(26)_ 2
     f(f06) c_l_int_cuts(27)_ 2
     f(f06) c_l_int_cuts(28)_ 2
     f(f06) c_l_int_cuts(29)_ 2
     f(f06) c_l_int_cuts(30)_ 2
     f(f06) c_l_int_cuts(31)_ 2
     f(f06) c_l_int_cuts(32)_ -2
     f(f06) c_l_int_cuts(33)_ -2
     f(f06) c_l_int_cuts(34)_ 2
     f(f06) c_l_int_cuts(35)_ 2
     f(f06) c_l_int_cuts(36)_ 2
     f(f07) c_e_flow_conservation(n04)_ -1
     f(f07) c_e_flow_conservation(n05)_ 1
     f(f07) c_l_int_cuts(1)_ -1
     f(f07) c_l_int_cuts(2)_ -1
     f(f07) c_l_int_cuts(3)_ -1
     f(f07) c_l_int_cuts(4)_ -1
     f(f07) c_l_int_cuts(5)_ -1
     f(f07) c_l_int_cuts(6)_ -1
     f(f07) c_l_int_cuts(7)_ -1
     f(f07) c_l_int_cuts(8)_ -1
     f(f07) c_l_int_cuts(9)_ -1
     f(f07) c_l_int_cuts(10)_ -1
     f(f07) c_l_int_cuts(11)_ -1
     f(f07) c_l_int_cuts(12)_ -1
     f(f07) c_l_int_cuts(13)_ -1
     f(f07) c_l_int_cuts(14)_ -1
     f(f07) c_l_int_cuts(15)_ -1
     f(f07) c_l_int_cuts(16)_ -1
     f(f07) c_l_int_cuts(17)_ -1
     f(f07) c_l_int_cuts(18)_ -1
     f(f07) c_l_int_cuts(19)_ -1
     f(f07) c_l_int_cuts(20)_ -1
     f(f07) c_l_int_cuts(21)_ -1
     f(f07) c_l_int_cuts(22)_ -1
     f(f07) c_l_int_cuts(23)_ -1
     f(f07) c_l_int_cuts(24)_ -1
     f(f07) c_l_int_cuts(25)_ -1
     f(f07) c_l_int_cuts(26)_ -1
     f(f07) c_l_int_cuts(27)_ -1
     f(f07) c_l_int_cuts(28)_ -1
     f(f07) c_l_int_cuts(29)_ -1
     f(f07) c_l_int_cuts(30)_ -1
     f(f07) c_l_int_cuts(31)_ -1
     f(f07) c_l_int_cuts(32)_ -1
     f(f07) c_l_int_cuts(33)_ -1
     f(f07) c_l_int_cuts(34)_ -1
     f(f07) c_l_int_cuts(35)_ -1
     f(f07) c_l_int_cuts(36)_ -1
     f(f08) capex 6.1929999999999996
     f(f08) c_e_flow_conservation(n05)_ -1
     f(f08) c_e_flow_conservation(n06)_ 1
     f(f08) c_u_disjunctions(4)_ 1
     f(f08) c_l_int_cuts(1)_ 2
     f(f08) c_l_int_cuts(2)_ 2
     f(f08) c_l_int_cuts(3)_ 2
     f(f08) c_l_int_cuts(4)_ -2
     f(f08) c_l_int_cuts(5)_ -2
     f(f08) c_l_int_cuts(6)_ -2
     f(f08) c_l_int_cuts(7)_ -2
     f(f08) c_l_int_cuts(8)_ -2
     f(f08) c_l_int_cuts(9)_ -2
     f(f08) c_l_int_cuts(10)_ -2
     f(f08) c_l_int_cuts(11)_ -2
     f(f08) c_l_int_cuts(12)_ -2
     f(f08) c_l_int_cuts(13)_ 2
     f(f08) c_l_int_cuts(14)_ 2
     f(f08) c_l_int_cuts(15)_ 2
     f(f08) c_l_int_cuts(16)_ 2
     f(f08) c_l_int_cuts(17)_ 2
     f(f08) c_l_int_cuts(18)_ 2
     f(f08) c_l_int_cuts(19)_ 2
     f(f08) c_l_int_cuts(20)_ 2
     f(f08) c_l_int_cuts(21)_ 2
     f(f08) c_l_int_cuts(22)_ 2
     f(f08) c_l_int_cuts(23)_ 2
     f(f08) c_l_int_cuts(24)_ 2
     f(f08) c_l_int_cuts(25)_ 2
     f(f08) c_l_int_cuts(26)_ 2
     f(f08) c_l_int_cuts(27)_ 2
     f(f08) c_l_int_cuts(28)_ 2
     f(f08) c_l_int_cuts(29)_ -2
     f(f08) c_l_int_cuts(30)_ -2
     f(f08) c_l_int_cuts(31)_ -2
     f(f08) c_l_int_cuts(32)_ 2
     f(f08) c_l_int_cuts(33)_ 2
     f(f08) c_l_int_cuts(34)_ 2
     f(f08) c_l_int_cuts(35)_ 2
     f(f08) c_l_int_cuts(36)_ 2
     f(f09) capex 9.7170000000000005
     f(f09) c_e_flow_conservation(n05)_ -1
     f(f09) c_e_flow_conservation(n06)_ 1
     f(f09) c_u_disjunctions(4)_ 1
     f(f09) c_l_int_cuts(1)_ 2
     f(f09) c_l_int_cuts(2)_ 2
     f(f09) c_l_int_cuts(3)_ 2
     f(f09) c_l_int_cuts(4)_ 2
     f(f09) c_l_int_cuts(5)_ 2
     f(f09) c_l_int_cuts(6)_ 2
     f(f09) c_l_int_cuts(7)_ 2
     f(f09) c_l_int_cuts(8)_ 2
     f(f09) c_l_int_cuts(9)_ 2
     f(f09) c_l_int_cuts(10)_ 2
     f(f09) c_l_int_cuts(11)_ 2
     f(f09) c_l_int_cuts(12)_ 2
     f(f09) c_l_int_cuts(13)_ 2
     f(f09) c_l_int_cuts(14)_ 2
     f(f09) c_l_int_cuts(15)_ 2
     f(f09) c_l_int_cuts(16)_ 2
     f(f09) c_l_int_cuts(17)_ 2
     f(f09) c_l_int_cuts(18)_ 2
     f(f09) c_l_int_cuts(19)_ 2
     f(f09) c_l_int_cuts(20)_ -2
     f(f09) c_l_int_cuts(21)_ -2
     f(f09) c_l_int_cuts(22)_ -2
     f(f09) c_l_int_cuts(23)_ -2
     f(f09) c_l_int_cuts(24)_ -2
     f(f09) c_l_int_cuts(25)_ -2
     f(f09) c_l_int_cuts(26)_ -2
     f(f09) c_l_int_cuts(27)_ -2
     f(f09) c_l_int_cuts(28)_ -2
     f(f09) c_l_int_cuts(29)_ 2
     f(f09) c_l_int_cuts(30)_ 2
     f(f09) c_l_int_cuts(31)_ 2
     f(f09) c_l_int_cuts(32)_ 2
     f(f09) c_l_int_cuts(33)_ 2
     f(f09) c_l_int_cuts(34)_ -2
     f(f09) c_l_int_cuts(35)_ -2
     f(f09) c_l_int_cuts(36)_ -2
     f(f10) capex 3.3519999999999999
     f(f10) c_e_flow_conservation(n05)_ -1
     f(f10) c_e_flow_conservation(n06)_ 1
     f(f10) c_u_disjunctions(4)_ 1
     f(f10) c_l_continuous_to_batch(1)_ -1
     f(f10) c_l_continuous_to_batch(2)_ -1
     f(f10) c_l_continuous_to_batch(3)_ -1
     f(f10) c_l_continuous_to_batch(5)_ 1
     f(f10) c_l_int_cuts(1)_ -2
     f(f10) c_l_int_cuts(2)_ -2
     f(f10) c_l_int_cuts(3)_ -2
     f(f10) c_l_int_cuts(4)_ 2
     f(f10) c_l_int_cuts(5)_ 2
     f(f10) c_l_int_cuts(6)_ 2
     f(f10) c_l_int_cuts(7)_ 2
     f(f10) c_l_int_cuts(8)_ 2
     f(f10) c_l_int_cuts(9)_ 2
     f(f10) c_l_int_cuts(10)_ 2
     f(f10) c_l_int_cuts(11)_ 2
     f(f10) c_l_int_cuts(12)_ 2
     f(f10) c_l_int_cuts(13)_ -2
     f(f10) c_l_int_cuts(14)_ -2
     f(f10) c_l_int_cuts(15)_ -2
     f(f10) c_l_int_cuts(16)_ -2
     f(f10) c_l_int_cuts(17)_ -2
     f(f10) c_l_int_cuts(18)_ -2
     f(f10) c_l_int_cuts(19)_ -2
     f(f10) c_l_int_cuts(20)_ 2
     f(f10) c_l_int_cuts(21)_ 2
     f(f10) c_l_int_cuts(22)_ 2
     f(f10) c_l_int_cuts(23)_ 2
     f(f10) c_l_int_cuts(24)_ 2
     f(f10) c_l_int_cuts(25)_ 2
     f(f10) c_l_int_cuts(26)_ 2
     f(f10) c_l_int_cuts(27)_ 2
     f(f10) c_l_int_cuts(28)_ 2
     f(f10) c_l_int_cuts(29)_ 2
     f(f10) c_l_int_cuts(30)_ 2
     f(f10) c_l_int_cuts(31)_ 2
     f(f10) c_l_int_cuts(32)_ -2
     f(f10) c_l_int_cuts(33)_ -2
     f(f10) c_l_int_cuts(34)_ 2
     f(f10) c_l_int_cuts(35)_ 2
     f(f10) c_l_int_cuts(36)_ 2
     f(f11) capex 6.1630000000000003
     f(f11) c_e_flow_conservation(n06)_ -1
     f(f11) c_e_flow_conservation(n07)_ 1
     f(f11) c_l_int_cuts(1)_ -1
     f(f11) c_l_int_cuts(2)_ -1
     f(f11) c_l_int_cuts(3)_ -1
     f(f11) c_l_int_cuts(4)_ -1
     f(f11) c_l_int_cuts(5)_ -1
     f(f11) c_l_int_cuts(6)_ -1
     f(f11) c_l_int_cuts(7)_ -1
     f(f11) c_l_int_cuts(8)_ -1
     f(f11) c_l_int_cuts(9)_ -1
     f(f11) c_l_int_cuts(10)_ -1
     f(f11) c_l_int_cuts(11)_ -1
     f(f11) c_l_int_cuts(12)_ -1
     f(f11) c_l_int_cuts(13)_ -1
     f(f11) c_l_int_cuts(14)_ -1
     f(f11) c_l_int_cuts(15)_ -1
     f(f11) c_l_int_cuts(16)_ -1
     f(f11) c_l_int_cuts(17)_ -1
     f(f11) c_l_int_cuts(18)_ -1
     f(f11) c_l_int_cuts(19)_ -1
     f(f11) c_l_int_cuts(20)_ -1
     f(f11) c_l_int_cuts(21)_ -1
     f(f11) c_l_int_cuts(22)_ -1
     f(f11) c_l_int_cuts(23)_ -1
     f(f11) c_l_int_cuts(24)_ -1
     f(f11) c_l_int_cuts(25)_ -1
     f(f11) c_l_int_cuts(26)_ -1
     f(f11) c_l_int_cuts(27)_ -1
     f(f11) c_l_int_cuts(28)_ -1
     f(f11) c_l_int_cuts(29)_ -1
     f(f11) c_l_int_cuts(30)_ -1
     f(f11) c_l_int_cuts(31)_ -1
     f(f11) c_l_int_cuts(32)_ -1
     f(f11) c_l_int_cuts(33)_ -1
     f(f11) c_l_int_cuts(34)_ -1
     f(f11) c_l_int_cuts(35)_ -1
     f(f11) c_l_int_cuts(36)_ -1
     f(f12) c_e_flow_conservation(n07)_ -1
     f(f12) c_e_flow_conservation(n08)_ 1
     f(f12) c_l_int_cuts(1)_ -1
     f(f12) c_l_int_cuts(2)_ -1
     f(f12) c_l_int_cuts(3)_ -1
     f(f12) c_l_int_cuts(4)_ -1
     f(f12) c_l_int_cuts(5)_ -1
     f(f12) c_l_int_cuts(6)_ -1
     f(f12) c_l_int_cuts(7)_ -1
     f(f12) c_l_int_cuts(8)_ -1
     f(f12) c_l_int_cuts(9)_ -1
     f(f12) c_l_int_cuts(10)_ -1
     f(f12) c_l_int_cuts(11)_ -1
     f(f12) c_l_int_cuts(12)_ -1
     f(f12) c_l_int_cuts(13)_ -1
     f(f12) c_l_int_cuts(14)_ -1
     f(f12) c_l_int_cuts(15)_ 1
     f(f12) c_l_int_cuts(16)_ -1
     f(f12) c_l_int_cuts(17)_ -1
     f(f12) c_l_int_cuts(18)_ -1
     f(f12) c_l_int_cuts(19)_ -1
     f(f12) c_l_int_cuts(20)_ -1
     f(f12) c_l_int_cuts(21)_ -1
     f(f12) c_l_int_cuts(22)_ -1
     f(f12) c_l_int_cuts(23)_ -1
     f(f12) c_l_int_cuts(24)_ -1
     f(f12) c_l_int_cuts(25)_ -1
     f(f12) c_l_int_cuts(26)_ -1
     f(f12) c_l_int_cuts(27)_ -1
     f(f12) c_l_int_cuts(28)_ -1
     f(f12) c_l_int_cuts(29)_ 1
     f(f12) c_l_int_cuts(30)_ 1
     f(f12) c_l_int_cuts(31)_ 1
     f(f12) c_l_int_cuts(32)_ 1
     f(f12) c_l_int_cuts(33)_ 1
     f(f12) c_l_int_cuts(34)_ 1
     f(f12) c_l_int_cuts(35)_ 1
     f(f12) c_l_int_cuts(36)_ 1
     f(f13) capex 0.73899999999999999
     f(f13) c_e_flow_conservation(n08)_ -1
     f(f13) c_e_flow_conservation(n09)_ 1
     f(f13) c_u_disjunctions(5)_ 1
     f(f13) c_l_continuous_to_batch(6)_ -1
     f(f13) c_l_int_cuts(1)_ -2
     f(f13) c_l_int_cuts(2)_ 2
     f(f13) c_l_int_cuts(3)_ 2
     f(f13) c_l_int_cuts(4)_ -2
     f(f13) c_l_int_cuts(5)_ -2
     f(f13) c_l_int_cuts(6)_ -2
     f(f13) c_l_int_cuts(7)_ 2
     f(f13) c_l_int_cuts(8)_ 2
     f(f13) c_l_int_cuts(9)_ 2
     f(f13) c_l_int_cuts(10)_ 2
     f(f13) c_l_int_cuts(11)_ 2
     f(f13) c_l_int_cuts(12)_ 2
     f(f13) c_l_int_cuts(13)_ -2
     f(f13) c_l_int_cuts(14)_ -2
     f(f13) c_l_int_cuts(15)_ 2
     f(f13) c_l_int_cuts(16)_ 2
     f(f13) c_l_int_cuts(17)_ 2
     f(f13) c_l_int_cuts(18)_ 2
     f(f13) c_l_int_cuts(19)_ 2
     f(f13) c_l_int_cuts(20)_ -2
     f(f13) c_l_int_cuts(21)_ -2
     f(f13) c_l_int_cuts(22)_ -2
     f(f13) c_l_int_cuts(23)_ 2
     f(f13) c_l_int_cuts(24)_ 2
     f(f13) c_l_int_cuts(25)_ 2
     f(f13) c_l_int_cuts(26)_ 2
     f(f13) c_l_int_cuts(27)_ 2
     f(f13) c_l_int_cuts(28)_ 2
     f(f13) c_l_int_cuts(29)_ 2
     f(f13) c_l_int_cuts(30)_ 2
     f(f13) c_l_int_cuts(31)_ 2
     f(f13) c_l_int_cuts(32)_ 2
     f(f13) c_l_int_cuts(33)_ 2
     f(f13) c_l_int_cuts(34)_ 2
     f(f13) c_l_int_cuts(35)_ 2
     f(f13) c_l_int_cuts(36)_ 2
     f(f14) capex 0.83999999999999997
     f(f14) c_e_flow_conservation(n08)_ -1
     f(f14) c_e_flow_conservation(n09)_ 1
     f(f14) c_u_disjunctions(5)_ 1
     f(f14) c_l_continuous_to_batch(7)_ -1
     f(f14) c_l_int_cuts(1)_ 2
     f(f14) c_l_int_cuts(2)_ -2
     f(f14) c_l_int_cuts(3)_ 2
     f(f14) c_l_int_cuts(4)_ 2
     f(f14) c_l_int_cuts(5)_ 2
     f(f14) c_l_int_cuts(6)_ 2
     f(f14) c_l_int_cuts(7)_ -2
     f(f14) c_l_int_cuts(8)_ -2
     f(f14) c_l_int_cuts(9)_ -2
     f(f14) c_l_int_cuts(10)_ 2
     f(f14) c_l_int_cuts(11)_ 2
     f(f14) c_l_int_cuts(12)_ 2
     f(f14) c_l_int_cuts(13)_ 2
     f(f14) c_l_int_cuts(14)_ 2
     f(f14) c_l_int_cuts(15)_ 2
     f(f14) c_l_int_cuts(16)_ -2
     f(f14) c_l_int_cuts(17)_ -2
     f(f14) c_l_int_cuts(18)_ 2
     f(f14) c_l_int_cuts(19)_ 2
     f(f14) c_l_int_cuts(20)_ 2
     f(f14) c_l_int_cuts(21)_ 2
     f(f14) c_l_int_cuts(22)_ 2
     f(f14) c_l_int_cuts(23)_ -2
     f(f14) c_l_int_cuts(24)_ -2
     f(f14) c_l_int_cuts(25)_ -2
     f(f14) c_l_int_cuts(26)_ 2
     f(f14) c_l_int_cuts(27)_ 2
     f(f14) c_l_int_cuts(28)_ 2
     f(f14) c_l_int_cuts(29)_ 2
     f(f14) c_l_int_cuts(30)_ 2
     f(f14) c_l_int_cuts(31)_ 2
     f(f14) c_l_int_cuts(32)_ 2
     f(f14) c_l_int_cuts(33)_ 2
     f(f14) c_l_int_cuts(34)_ 2
     f(f14) c_l_int_cuts(35)_ 2
     f(f14) c_l_int_cuts(36)_ 2
     f(f15) capex 1.2709999999999999
     f(f15) c_e_flow_conservation(n08)_ -1
     f(f15) c_e_flow_conservation(n09)_ 1
     f(f15) c_u_disjunctions(5)_ 1
     f(f15) c_l_continuous_to_batch(8)_ -1
     f(f15) c_l_int_cuts(1)_ 2
     f(f15) c_l_int_cuts(2)_ 2
     f(f15) c_l_int_cuts(3)_ -2
     f(f15) c_l_int_cuts(4)_ 2
     f(f15) c_l_int_cuts(5)_ 2
     f(f15) c_l_int_cuts(6)_ 2
     f(f15) c_l_int_cuts(7)_ 2
     f(f15) c_l_int_cuts(8)_ 2
     f(f15) c_l_int_cuts(9)_ 2
     f(f15) c_l_int_cuts(10)_ -2
     f(f15) c_l_int_cuts(11)_ -2
     f(f15) c_l_int_cuts(12)_ -2
     f(f15) c_l_int_cuts(13)_ 2
     f(f15) c_l_int_cuts(14)_ 2
     f(f15) c_l_int_cuts(15)_ 2
     f(f15) c_l_int_cuts(16)_ 2
     f(f15) c_l_int_cuts(17)_ 2
     f(f15) c_l_int_cuts(18)_ -2
     f(f15) c_l_int_cuts(19)_ -2
     f(f15) c_l_int_cuts(20)_ 2
     f(f15) c_l_int_cuts(21)_ 2
     f(f15) c_l_int_cuts(22)_ 2
     f(f15) c_l_int_cuts(23)_ 2
     f(f15) c_l_int_cuts(24)_ 2
     f(f15) c_l_int_cuts(25)_ 2
     f(f15) c_l_int_cuts(26)_ -2
     f(f15) c_l_int_cuts(27)_ -2
     f(f15) c_l_int_cuts(28)_ -2
     f(f15) c_l_int_cuts(29)_ 2
     f(f15) c_l_int_cuts(30)_ 2
     f(f15) c_l_int_cuts(31)_ 2
     f(f15) c_l_int_cuts(32)_ 2
     f(f15) c_l_int_cuts(33)_ 2
     f(f15) c_l_int_cuts(34)_ 2
     f(f15) c_l_int_cuts(35)_ 2
     f(f15) c_l_int_cuts(36)_ 2
     f(f16) capex 6.9900000000000002
     f(f16) c_e_flow_conservation(n07)_ -1
     f(f16) c_e_flow_conservation(n10)_ 1
     f(f16) c_u_disjunctions(1)_ 1
     f(f16) c_u_disjunctions(5)_ 1
     f(f16) c_l_int_cuts(1)_ 2
     f(f16) c_l_int_cuts(2)_ 2
     f(f16) c_l_int_cuts(3)_ 2
     f(f16) c_l_int_cuts(4)_ 2
     f(f16) c_l_int_cuts(5)_ 2
     f(f16) c_l_int_cuts(6)_ 2
     f(f16) c_l_int_cuts(7)_ 2
     f(f16) c_l_int_cuts(8)_ 2
     f(f16) c_l_int_cuts(9)_ 2
     f(f16) c_l_int_cuts(10)_ 2
     f(f16) c_l_int_cuts(11)_ 2
     f(f16) c_l_int_cuts(12)_ 2
     f(f16) c_l_int_cuts(13)_ 2
     f(f16) c_l_int_cuts(14)_ 2
     f(f16) c_l_int_cuts(15)_ -2
     f(f16) c_l_int_cuts(16)_ 2
     f(f16) c_l_int_cuts(17)_ 2
     f(f16) c_l_int_cuts(18)_ 2
     f(f16) c_l_int_cuts(19)_ 2
     f(f16) c_l_int_cuts(20)_ 2
     f(f16) c_l_int_cuts(21)_ 2
     f(f16) c_l_int_cuts(22)_ 2
     f(f16) c_l_int_cuts(23)_ 2
     f(f16) c_l_int_cuts(24)_ 2
     f(f16) c_l_int_cuts(25)_ 2
     f(f16) c_l_int_cuts(26)_ 2
     f(f16) c_l_int_cuts(27)_ 2
     f(f16) c_l_int_cuts(28)_ 2
     f(f16) c_l_int_cuts(29)_ -2
     f(f16) c_l_int_cuts(30)_ -2
     f(f16) c_l_int_cuts(31)_ -2
     f(f16) c_l_int_cuts(32)_ -2
     f(f16) c_l_int_cuts(33)_ -2
     f(f16) c_l_int_cuts(34)_ -2
     f(f16) c_l_int_cuts(35)_ -2
     f(f16) c_l_int_cuts(36)_ -2
     f(f17) capex 1.333
     f(f17) c_e_flow_conservation(n09)_ -1
     f(f17) c_e_flow_conservation(n10)_ 1
     f(f17) c_u_disjunctions(1)_ 1
     f(f17) c_l_continuous_to_batch(6)_ 1
     f(f17) c_l_continuous_to_batch(7)_ 1
     f(f17) c_l_continuous_to_batch(8)_ 1
     f(f17) c_l_int_cuts(1)_ -2
     f(f17) c_l_int_cuts(2)_ -2
     f(f17) c_l_int_cuts(3)_ -2
     f(f17) c_l_int_cuts(4)_ -2
     f(f17) c_l_int_cuts(5)_ -2
     f(f17) c_l_int_cuts(6)_ -2
     f(f17) c_l_int_cuts(7)_ -2
     f(f17) c_l_int_cuts(8)_ -2
     f(f17) c_l_int_cuts(9)_ -2
     f(f17) c_l_int_cuts(10)_ -2
     f(f17) c_l_int_cuts(11)_ -2
     f(f17) c_l_int_cuts(12)_ -2
     f(f17) c_l_int_cuts(13)_ -2
     f(f17) c_l_int_cuts(14)_ -2
     f(f17) c_l_int_cuts(15)_ 2
     f(f17) c_l_int_cuts(16)_ -2
     f(f17) c_l_int_cuts(17)_ -2
     f(f17) c_l_int_cuts(18)_ -2
     f(f17) c_l_int_cuts(19)_ -2
     f(f17) c_l_int_cuts(20)_ -2
     f(f17) c_l_int_cuts(21)_ -2
     f(f17) c_l_int_cuts(22)_ -2
     f(f17) c_l_int_cuts(23)_ -2
     f(f17) c_l_int_cuts(24)_ -2
     f(f17) c_l_int_cuts(25)_ -2
     f(f17) c_l_int_cuts(26)_ -2
     f(f17) c_l_int_cuts(27)_ -2
     f(f17) c_l_int_cuts(28)_ -2
     f(f17) c_l_int_cuts(29)_ 2
     f(f17) c_l_int_cuts(30)_ 2
     f(f17) c_l_int_cuts(31)_ 2
     f(f17) c_l_int_cuts(32)_ 2
     f(f17) c_l_int_cuts(33)_ 2
     f(f17) c_l_int_cuts(34)_ 2
     f(f17) c_l_int_cuts(35)_ 2
     f(f17) c_l_int_cuts(36)_ 2
     f(f18) c_e_flow_conservation(n10)_ -1
     f(f18) c_e_flow_conservation(n11)_ 1
     f(f18) c_l_int_cuts(1)_ -1
     f(f18) c_l_int_cuts(2)_ -1
     f(f18) c_l_int_cuts(3)_ -1
     f(f18) c_l_int_cuts(4)_ -1
     f(f18) c_l_int_cuts(5)_ -1
     f(f18) c_l_int_cuts(6)_ -1
     f(f18) c_l_int_cuts(7)_ -1
     f(f18) c_l_int_cuts(8)_ -1
     f(f18) c_l_int_cuts(9)_ -1
     f(f18) c_l_int_cuts(10)_ -1
     f(f18) c_l_int_cuts(11)_ -1
     f(f18) c_l_int_cuts(12)_ -1
     f(f18) c_l_int_cuts(13)_ -1
     f(f18) c_l_int_cuts(14)_ -1
     f(f18) c_l_int_cuts(15)_ -1
     f(f18) c_l_int_cuts(16)_ -1
     f(f18) c_l_int_cuts(17)_ -1
     f(f18) c_l_int_cuts(18)_ -1
     f(f18) c_l_int_cuts(19)_ -1
     f(f18) c_l_int_cuts(20)_ -1
     f(f18) c_l_int_cuts(21)_ -1
     f(f18) c_l_int_cuts(22)_ -1
     f(f18) c_l_int_cuts(23)_ -1
     f(f18) c_l_int_cuts(24)_ -1
     f(f18) c_l_int_cuts(25)_ -1
     f(f18) c_l_int_cuts(26)_ -1
     f(f18) c_l_int_cuts(27)_ -1
     f(f18) c_l_int_cuts(28)_ -1
     f(f18) c_l_int_cuts(29)_ -1
     f(f18) c_l_int_cuts(30)_ -1
     f(f18) c_l_int_cuts(31)_ -1
     f(f18) c_l_int_cuts(32)_ -1
     f(f18) c_l_int_cuts(33)_ -1
     f(f18) c_l_int_cuts(34)_ -1
     f(f18) c_l_int_cuts(35)_ -1
     f(f18) c_l_int_cuts(36)_ -1
RHS
     RHS c_e_flow_conservation(n00)_ 1
     RHS c_e_flow_conservation(n01)_ 0
     RHS c_e_flow_conservation(n02)_ 0
     RHS c_e_flow_conservation(n03)_ 0
     RHS c_e_flow_conservation(n04)_ 0
     RHS c_e_flow_conservation(n05)_ 0
     RHS c_e_flow_conservation(n06)_ 0
     RHS c_e_flow_conservation(n07)_ 0
     RHS c_e_flow_conservation(n08)_ 0
     RHS c_e_flow_conservation(n09)_ 0
     RHS c_e_flow_conservation(n10)_ 0
     RHS c_e_flow_conservation(n11)_ 1
     RHS c_u_disjunctions(1)_ 1
     RHS c_u_disjunctions(2)_ 1
     RHS c_u_disjunctions(3)_ 1
     RHS c_u_disjunctions(4)_ 1
     RHS c_u_disjunctions(5)_ 1
     RHS c_l_continuous_to_batch(1)_ -1
     RHS c_l_continuous_to_batch(2)_ -1
     RHS c_l_continuous_to_batch(3)_ -2
     RHS c_l_continuous_to_batch(4)_ 1
     RHS c_l_continuous_to_batch(5)_ 1
     RHS c_l_continuous_to_batch(6)_ 0
     RHS c_l_continuous_to_batch(7)_ 0
     RHS c_l_continuous_to_batch(8)_ 0
     RHS c_l_int_cuts(1)_ -15
     RHS c_l_int_cuts(2)_ -15
     RHS c_l_int_cuts(3)_ -15
     RHS c_l_int_cuts(4)_ -15
     RHS c_l_int_cuts(5)_ -15
     RHS c_l_int_cuts(6)_ -15
     RHS c_l_int_cuts(7)_ -15
     RHS c_l_int_cuts(8)_ -15
     RHS c_l_int_cuts(9)_ -15
     RHS c_l_int_cuts(10)_ -15
     RHS c_l_int_cuts(11)_ -15
     RHS c_l_int_cuts(12)_ -15
     RHS c_l_int_cuts(13)_ -15
     RHS c_l_int_cuts(14)_ -15
     RHS c_l_int_cuts(15)_ -12
     RHS c_l_int_cuts(16)_ -15
     RHS c_l_int_cuts(17)_ -15
     RHS c_l_int_cuts(18)_ -15
     RHS c_l_int_cuts(19)_ -15
     RHS c_l_int_cuts(20)_ -15
     RHS c_l_int_cuts(21)_ -15
     RHS c_l_int_cuts(22)_ -15
     RHS c_l_int_cuts(23)_ -15
     RHS c_l_int_cuts(24)_ -15
     RHS c_l_int_cuts(25)_ -15
     RHS c_l_int_cuts(26)_ -15
     RHS c_l_int_cuts(27)_ -15
     RHS c_l_int_cuts(28)_ -15
     RHS c_l_int_cuts(29)_ -12
     RHS c_l_int_cuts(30)_ -12
     RHS c_l_int_cuts(31)_ -12
     RHS c_l_int_cuts(32)_ -12
     RHS c_l_int_cuts(33)_ -12
     RHS c_l_int_cuts(34)_ -12
     RHS c_l_int_cuts(35)_ -12
     RHS c_l_int_cuts(36)_ -12
BOUNDS
 BV BOUND f(f00)
 BV BOUND f(f01)
 BV BOUND f(f02)
 BV BOUND f(f03)
 BV BOUND f(f04)
 BV BOUND f(f05)
 BV BOUND f(f06)
 BV BOUND f(f07)
 BV BOUND f(f08)
 BV BOUND f(f09)
 BV BOUND f(f10)
 BV BOUND f(f11)
 BV BOUND f(f12)
 BV BOUND f(f13)
 BV BOUND f(f14)
 BV BOUND f(f15)
 BV BOUND f(f16)
 BV BOUND f(f17)
 BV BOUND f(f18)
ENDATA
